# Solution for model problem_
# Objective value = 2.0107559386769697e+05
x(0_0) 0
x(0_1) 0
x(0_2) 0
x(0_3) 0
x(0_4) 0
x(0_5) 0
x(0_6) 0
x(0_7) 0
x(0_8) 0
x(0_9) 0
x(0_10) 0
x(0_11) 0
x(0_12) 1
x(0_13) 0
x(0_14) 0
x(0_15) 0
x(0_16) 0
x(0_17) 0
x(0_18) 0
x(1_19) 0
x(1_20) 0
x(1_21) 0
x(1_22) 0
x(1_23) 0
x(1_24) 0
x(1_25) 0
x(1_26) 0
x(1_27) 0
x(1_28) 1
x(1_29) 0
x(1_30) 0
x(2_31) 0
x(2_32) 0
x(2_33) 0
x(2_34) 0
x(2_35) 1
x(2_36) 0
x(2_37) 0
x(2_38) 0
x(2_39) 0
x(2_40) 0
x(2_41) 0
x(2_42) 0
x(3_43) 0
x(3_44) 0
x(3_45) 0
x(3_46) 0
x(3_47) 0
x(3_48) 0
x(3_49) 0
x(3_50) 0
x(3_51) 0
x(3_52) 0
x(3_53) 0
x(3_54) 1
x(3_55) 0
x(3_56) 0
x(3_57) 0
x(3_58) 0
x(4_59) 0
x(4_60) 0
x(4_61) 1
x(4_62) 0
x(4_63) 0
x(4_64) 0
x(4_65) 0
x(4_66) 0
x(4_67) 0
x(4_68) 0
x(4_69) 0
x(4_70) 0
x(4_71) 0
x(4_72) 0
x(5_73) 0
x(5_74) 0
x(5_75) 0
x(5_76) 0
x(5_77) 0
x(5_78) 0
x(5_79) 0
x(5_80) 0
x(5_81) 0
x(5_82) 0
x(5_83) 0
x(5_84) 0
x(5_85) 0
x(5_86) 0
x(5_87) 0
x(5_88) 0
x(5_89) 0
x(5_90) 0
x(5_91) 1
x(5_92) 0
x(6_93) 0
x(6_94) 0
x(6_95) 0
x(6_96) 0
x(6_97) 0
x(6_98) 0
x(6_99) 0
x(6_100) 0
x(6_101) 0
x(6_102) 0
x(6_103) 0
x(6_104) 0
x(6_105) 0
x(6_106) 1
x(6_107) 0
x(6_108) 0
x(6_109) 0
x(6_110) 0
x(6_111) 0
x(6_112) 0
x(7_113) 0
x(7_114) 0
x(7_115) 0
x(7_116) 0
x(7_117) 0
x(7_118) 0
x(7_119) 0
x(7_120) 1
x(7_121) 0
x(7_122) 0
x(7_123) 0
x(7_124) 0
x(7_125) 0
x(7_126) 0
x(7_127) 0
x(8_128) 1
x(8_129) 0
x(8_130) 0
x(8_131) 0
x(8_132) 0
x(8_133) 0
x(8_134) 0
x(8_135) 0
x(8_136) 0
x(8_137) 0
x(8_138) 0
x(8_139) 0
x(8_140) 0
x(8_141) 0
x(8_142) 0
x(9_143) 0
x(9_144) 0
x(9_145) 0
x(9_146) 0
x(9_147) 0
x(9_148) 0
x(9_149) 0
x(9_150) 0
x(9_151) 0
x(9_152) 0
x(9_153) 0
x(9_154) 1
x(9_155) 0
x(9_156) 0
x(9_157) 0
x(9_158) 0
x(9_159) 0
x(10_160) 0
x(10_161) 0
x(10_162) 0
x(10_163) 0
x(10_164) 1
x(10_165) 0
x(10_166) 0
x(10_167) 0
x(10_168) 0
x(10_169) 0
x(10_170) 0
x(10_171) 0
x(10_172) 0
x(10_173) 0
x(10_174) 0
x(11_175) 0
x(11_176) 0
x(11_177) 0
x(11_178) 0
x(11_179) 0
x(11_180) 0
x(11_181) 1
x(11_182) 0
x(11_183) 0
x(11_184) 0
x(11_185) 0
x(12_186) 0
x(12_187) 1
x(12_188) 0
x(12_189) 0
x(12_190) 0
x(12_191) 0
x(12_192) 0
x(12_193) 0
x(12_194) 0
x(12_195) 0
x(12_196) 0
x(12_197) 0
x(12_198) 0
x(12_199) 0
x(12_200) 0
x(12_201) 0
x(12_202) 0
x(12_203) 0
x(12_204) 0
x(12_205) 0
x(13_206) 0
x(13_207) 0
x(13_208) 0
x(13_209) 0
x(13_210) 0
x(13_211) 0
x(13_212) 0
x(13_213) 0
x(13_214) 1
x(13_215) 0
x(13_216) 0
x(13_217) 0
x(13_218) 0
x(13_219) 0
x(13_220) 0
x(13_221) 0
x(13_222) 0
x(14_223) 0
x(14_224) 0
x(14_225) 0
x(14_226) 0
x(14_227) 0
x(14_228) 0
x(14_229) 0
x(14_230) 1
x(14_231) 0
x(14_232) 0
x(14_233) 0
x(14_234) 0
x(14_235) 0
x(14_236) 0
x(14_237) 0
x(14_238) 0
x(14_239) 0
x(15_240) 0
x(15_241) 0
x(15_242) 0
x(15_243) 0
x(15_244) 0
x(15_245) 1
x(15_246) 0
x(15_247) 0
x(15_248) 0
x(15_249) 0
x(15_250) 0
x(15_251) 0
x(16_252) 0
x(16_253) 0
x(16_254) 0
x(16_255) 0
x(16_256) 0
x(16_257) 0
x(16_258) 0
x(16_259) 0
x(16_260) 0
x(16_261) 0
x(16_262) 0
x(16_263) 1
x(16_264) 0
x(16_265) 0
x(16_266) 0
x(17_267) 0
x(17_268) 0
x(17_269) 0
x(17_270) 0
x(17_271) 0
x(17_272) 0
x(17_273) 0
x(17_274) 0
x(17_275) 0
x(17_276) 0
x(17_277) 0
x(17_278) 0
x(17_279) 1
x(17_280) 0
x(17_281) 0
x(17_282) 0
x(17_283) 0
x(17_284) 0
x(18_285) 0
x(18_286) 0
x(18_287) 1
x(18_288) 0
x(18_289) 0
x(18_290) 0
x(18_291) 0
x(18_292) 0
x(18_293) 0
x(18_294) 0
x(18_295) 0
x(18_296) 0
x(18_297) 0
x(18_298) 0
x(18_299) 0
x(19_300) 1
x(19_301) 0
x(19_302) 0
x(19_303) 0
x(19_304) 0
x(19_305) 0
x(19_306) 0
x(19_307) 0
x(19_308) 0
x(19_309) 0
x(19_310) 0
x(19_311) 0
x(20_312) 1
x(20_313) 0
x(20_314) 0
x(20_315) 0
x(20_316) 0
x(20_317) 0
x(20_318) 0
x(20_319) 0
x(20_320) 0
x(20_321) 0
x(20_322) 0
x(20_323) 0
x(20_324) 0
x(20_325) 0
x(20_326) 0
x(21_327) 0
x(21_328) 0
x(21_329) 0
x(21_330) 0
x(21_331) 0
x(21_332) 0
x(21_333) 1
x(21_334) 0
x(21_335) 0
x(21_336) 0
x(21_337) 0
x(21_338) 0
x(21_339) 0
x(21_340) 0
x(21_341) 0
x(21_342) 0
x(21_343) 0
x(21_344) 0
x(21_345) 0
x(22_346) 0
x(22_347) 0
x(22_348) 1
x(22_349) 0
x(22_350) 0
x(22_351) 0
x(22_352) 0
x(22_353) 0
x(22_354) 0
x(22_355) 0
x(22_356) 0
x(22_357) 0
x(22_358) 0
x(22_359) 0
x(22_360) 0
x(23_361) 0
x(23_362) 0
x(23_363) 0
x(23_364) 0
x(23_365) 1
x(23_366) 0
x(23_367) 0
x(23_368) 0
x(23_369) 0
x(23_370) 0
x(23_371) 0
x(23_372) 0
x(23_373) 0
x(24_374) 0
x(24_375) 0
x(24_376) 0
x(24_377) 0
x(24_378) 0
x(24_379) 0
x(24_380) 0
x(24_381) 0
x(24_382) 0
x(24_383) 0
x(24_384) 0
x(24_385) 0
x(24_386) 1
x(24_387) 0
x(24_388) 0
x(25_389) 0
x(25_390) 0
x(25_391) 0
x(25_392) 0
x(25_393) 0
x(25_394) 0
x(25_395) 0
x(25_396) 0
x(25_397) 0
x(25_398) 0
x(25_399) 1
x(25_400) 0
x(25_401) 0
x(25_402) 0
x(25_403) 0
x(25_404) 0
x(25_405) 0
x(26_406) 0
x(26_407) 0
x(26_408) 0
x(26_409) 0
x(26_410) 0
x(26_411) 0
x(26_412) 0
x(26_413) 0
x(26_414) 0
x(26_415) 0
x(26_416) 0
x(26_417) 1
x(27_418) 0
x(27_419) 1
x(27_420) 0
x(27_421) 0
x(27_422) 0
x(27_423) 0
x(27_424) 0
x(27_425) 0
x(27_426) 0
x(27_427) 0
x(27_428) 0
x(27_429) 0
x(27_430) 0
x(27_431) 0
x(27_432) 0
x(27_433) 0
x(27_434) 0
x(28_435) 1
x(28_436) 0
x(28_437) 0
x(28_438) 0
x(28_439) 0
x(28_440) 0
x(28_441) 0
x(28_442) 0
x(28_443) 0
x(28_444) 0
x(28_445) 0
x(28_446) 0
x(28_447) 0
x(29_448) 1
x(29_449) 0
x(29_450) 0
x(29_451) 0
x(29_452) 0
x(29_453) 0
x(29_454) 0
x(29_455) 0
x(29_456) 0
x(29_457) 0
x(29_458) 0
x(29_459) 0
x(29_460) 0
x(30_461) 0
x(30_462) 0
x(30_463) 0
x(30_464) 1
x(30_465) 0
x(30_466) 0
x(30_467) 0
x(30_468) 0
x(30_469) 0
x(30_470) 0
x(30_471) 0
x(31_472) 0
x(31_473) 0
x(31_474) 0
x(31_475) 0
x(31_476) 0
x(31_477) 0
x(31_478) 0
x(31_479) 0
x(31_480) 0
x(31_481) 0
x(31_482) 0
x(31_483) 1
x(31_484) 0
x(31_485) 0
x(31_486) 0
x(31_487) 0
x(32_488) 0
x(32_489) 0
x(32_490) 0
x(32_491) 0
x(32_492) 0
x(32_493) 0
x(32_494) 0
x(32_495) 0
x(32_496) 0
x(32_497) 0
x(32_498) 1
x(32_499) 0
x(32_500) 0
x(32_501) 0
x(33_502) 0
x(33_503) 1
x(33_504) 0
x(33_505) 0
x(33_506) 0
x(33_507) 0
x(33_508) 0
x(33_509) 0
x(33_510) 0
x(33_511) 0
x(33_512) 0
x(33_513) 0
x(33_514) 0
x(33_515) 0
x(34_516) 0
x(34_517) 0
x(34_518) 0
x(34_519) 0
x(34_520) 0
x(34_521) 0
x(34_522) 0
x(34_523) 1
x(34_524) 0
x(34_525) 0
x(34_526) 0
x(35_527) 0
x(35_528) 0
x(35_529) 0
x(35_530) 0
x(35_531) 0
x(35_532) 0
x(35_533) 0
x(35_534) 1
x(35_535) 0
x(35_536) 0
x(35_537) 0
x(35_538) 0
x(35_539) 0
x(35_540) 0
x(35_541) 0
x(35_542) 0
x(35_543) 0
x(35_544) 0
x(35_545) 0
x(36_546) 1
x(36_547) 0
x(36_548) 0
x(36_549) 0
x(36_550) 0
x(36_551) 0
x(36_552) 0
x(36_553) 0
x(36_554) 0
x(36_555) 0
x(36_556) 0
x(36_557) 0
x(36_558) 0
x(36_559) 0
x(36_560) 0
x(37_561) 0
x(37_562) 1
x(37_563) 0
x(37_564) 0
x(37_565) 0
x(37_566) 0
x(37_567) 0
x(37_568) 0
x(37_569) 0
x(37_570) 0
x(37_571) 0
x(37_572) 0
x(38_573) 0
x(38_574) 0
x(38_575) 0
x(38_576) 0
x(38_577) 0
x(38_578) 1
x(38_579) 0
x(38_580) 0
x(38_581) 0
x(38_582) 0
x(38_583) 0
x(38_584) 0
x(38_585) 0
x(38_586) 0
x(38_587) 0
x(38_588) 0
x(38_589) 0
x(39_590) 0
x(39_591) 0
x(39_592) 0
x(39_593) 0
x(39_594) 0
x(39_595) 0
x(39_596) 1
x(39_597) 0
x(39_598) 0
x(39_599) 0
x(39_600) 0
x(39_601) 0
x(39_602) 0
x(39_603) 0
x(39_604) 0
x(39_605) 0
x(39_606) 0
x(39_607) 0
x(40_608) 0
x(40_609) 0
x(40_610) 0
x(40_611) 0
x(40_612) 0
x(40_613) 0
x(40_614) 1
x(40_615) 0
x(40_616) 0
x(40_617) 0
x(40_618) 0
x(40_619) 0
x(40_620) 0
x(40_621) 0
x(40_622) 0
x(40_623) 0
x(40_624) 0
x(40_625) 0
x(40_626) 0
x(41_627) 0
x(41_628) 0
x(41_629) 0
x(41_630) 0
x(41_631) 0
x(41_632) 0
x(41_633) 0
x(41_634) 1
x(41_635) 0
x(41_636) 0
x(41_637) 0
x(41_638) 0
x(42_639) 0
x(42_640) 0
x(42_641) 0
x(42_642) 0
x(42_643) 0
x(42_644) 0
x(42_645) 0
x(42_646) 0
x(42_647) 0
x(42_648) 0
x(42_649) 0
x(42_650) 0
x(42_651) 0
x(42_652) 0
x(42_653) 1
x(42_654) 0
x(42_655) 0
x(42_656) 0
x(42_657) 0
x(43_658) 0
x(43_659) 0
x(43_660) 0
x(43_661) 0
x(43_662) 0
x(43_663) 0
x(43_664) 0
x(43_665) 0
x(43_666) 0
x(43_667) 0
x(43_668) 0
x(43_669) 0
x(43_670) 1
x(43_671) 0
x(43_672) 0
x(43_673) 0
x(43_674) 0
x(43_675) 0
x(43_676) 0
x(43_677) 0
x(44_678) 0
x(44_679) 1
x(44_680) 0
x(44_681) 0
x(44_682) 0
x(44_683) 0
x(44_684) 0
x(44_685) 0
x(44_686) 0
x(44_687) 0
x(45_688) 0
x(45_689) 0
x(45_690) 1
x(45_691) 0
x(45_692) 0
x(45_693) 0
x(45_694) 0
x(45_695) 0
x(45_696) 0
x(45_697) 0
x(45_698) 0
x(45_699) 0
x(45_700) 0
x(45_701) 0
x(45_702) 0
x(45_703) 0
x(45_704) 0
x(45_705) 0
x(45_706) 0
x(46_707) 0
x(46_708) 0
x(46_709) 0
x(46_710) 0
x(46_711) 0
x(46_712) 0
x(46_713) 0
x(46_714) 0
x(46_715) 0
x(46_716) 0
x(46_717) 0
x(46_718) 0
x(46_719) 1
x(46_720) 0
x(46_721) 0
x(46_722) 0
x(46_723) 0
x(46_724) 0
x(47_725) 0
x(47_726) 0
x(47_727) 0
x(47_728) 0
x(47_729) 0
x(47_730) 0
x(47_731) 0
x(47_732) 0
x(47_733) 0
x(47_734) 0
x(47_735) 0
x(47_736) 1
x(47_737) 0
x(47_738) 0
x(47_739) 0
x(47_740) 0
x(47_741) 0
x(47_742) 0
x(47_743) 0
x(48_744) 0
x(48_745) 0
x(48_746) 0
x(48_747) 0
x(48_748) 0
x(48_749) 0
x(48_750) 0
x(48_751) 0
x(48_752) 0
x(48_753) 0
x(48_754) 0
x(48_755) 0
x(48_756) 0
x(48_757) 1
x(48_758) 0
x(48_759) 0
x(48_760) 0
x(48_761) 0
x(48_762) 0
x(48_763) 0
x(49_764) 1
x(49_765) 0
x(49_766) 0
x(49_767) 0
x(49_768) 0
x(49_769) 0
x(49_770) 0
x(49_771) 0
x(49_772) 0
x(49_773) 0
x(49_774) 0
x(49_775) 0
x(49_776) 0
x(49_777) 0
x(49_778) 0
x(49_779) 0
x(50_780) 0
x(50_781) 0
x(50_782) 0
x(50_783) 0
x(50_784) 0
x(50_785) 0
x(50_786) 1
x(50_787) 0
x(50_788) 0
x(50_789) 0
x(50_790) 0
x(50_791) 0
x(51_792) 0
x(51_793) 0
x(51_794) 0
x(51_795) 0
x(51_796) 0
x(51_797) 0
x(51_798) 0
x(51_799) 0
x(51_800) 1
x(51_801) 0
x(51_802) 0
x(51_803) 0
x(51_804) 0
x(51_805) 0
x(51_806) 0
x(51_807) 0
x(51_808) 0
x(51_809) 0
x(52_810) 0
x(52_811) 0
x(52_812) 0
x(52_813) 0
x(52_814) 0
x(52_815) 0
x(52_816) 0
x(52_817) 0
x(52_818) 0
x(52_819) 0
x(52_820) 1
x(52_821) 0
x(52_822) 0
x(52_823) 0
x(52_824) 0
x(52_825) 0
x(52_826) 0
x(52_827) 0
x(52_828) 0
x(52_829) 0
x(53_830) 0
x(53_831) 0
x(53_832) 0
x(53_833) 0
x(53_834) 0
x(53_835) 0
x(53_836) 0
x(53_837) 0
x(53_838) 0
x(53_839) 1
x(53_840) 0
x(53_841) 0
x(53_842) 0
x(53_843) 0
x(53_844) 0
x(54_845) 0
x(54_846) 0
x(54_847) 0
x(54_848) 0
x(54_849) 0
x(54_850) 0
x(54_851) 0
x(54_852) 0
x(54_853) 1
x(54_854) 0
x(54_855) 0
x(54_856) 0
x(54_857) 0
x(54_858) 0
x(55_859) 0
x(55_860) 0
x(55_861) 0
x(55_862) 0
x(55_863) 0
x(55_864) 0
x(55_865) 0
x(55_866) 0
x(55_867) 0
x(55_868) 0
x(55_869) 0
x(55_870) 0
x(55_871) 0
x(55_872) 1
x(55_873) 0
x(55_874) 0
x(55_875) 0
x(55_876) 0
x(55_877) 0
x(55_878) 0
x(56_879) 0
x(56_880) 1
x(56_881) 0
x(56_882) 0
x(56_883) 0
x(56_884) 0
x(56_885) 0
x(56_886) 0
x(56_887) 0
x(56_888) 0
x(56_889) 0
x(56_890) 0
x(56_891) 0
x(56_892) 0
x(56_893) 0
x(56_894) 0
x(56_895) 0
x(56_896) 0
x(56_897) 0
x(57_898) 0
x(57_899) 0
x(57_900) 0
x(57_901) 1
x(57_902) 0
x(57_903) 0
x(57_904) 0
x(57_905) 0
x(57_906) 0
x(57_907) 0
x(57_908) 0
x(57_909) 0
x(57_910) 0
x(58_911) 0
x(58_912) 0
x(58_913) 0
x(58_914) 0
x(58_915) 0
x(58_916) 0
x(58_917) 1
x(58_918) 0
x(58_919) 0
x(58_920) 0
x(58_921) 0
x(58_922) 0
x(58_923) 0
x(58_924) 0
x(58_925) 0
x(58_926) 0
x(58_927) 0
x(58_928) 0
x(58_929) 0
x(59_930) 1
x(59_931) 0
x(59_932) 0
x(59_933) 0
x(59_934) 0
x(59_935) 0
x(59_936) 0
x(59_937) 0
x(59_938) 0
x(59_939) 0
x(60_940) 0
x(60_941) 0
x(60_942) 0
x(60_943) 0
x(60_944) 0
x(60_945) 0
x(60_946) 1
x(60_947) 0
x(60_948) 0
x(60_949) 0
x(60_950) 0
x(60_951) 0
x(60_952) 0
x(61_953) 0
x(61_954) 0
x(61_955) 0
x(61_956) 0
x(61_957) 0
x(61_958) 0
x(61_959) 0
x(61_960) 0
x(61_961) 0
x(61_962) 0
x(61_963) 0
x(61_964) 1
x(61_965) 0
x(61_966) 0
x(62_967) 0
x(62_968) 0
x(62_969) 0
x(62_970) 1
x(62_971) 0
x(62_972) 0
x(62_973) 0
x(62_974) 0
x(62_975) 0
x(62_976) 0
x(62_977) 0
x(63_978) 0
x(63_979) 0
x(63_980) 0
x(63_981) 0
x(63_982) 1
x(63_983) 0
x(63_984) 0
x(63_985) 0
x(63_986) 0
x(63_987) 0
x(63_988) 0
x(63_989) 0
x(63_990) 0
x(63_991) 0
x_1_0 3.1394689486082643e+02
s_1_0 0
z_1_0 0
x_1_1 3.1674075963906944e+02
s_1_1 0
z_1_1 0
x_1_2 3.1529110285826027e+02
s_1_2 0
z_1_2 0
x_1_3 3.1734237677091733e+02
s_1_3 0
z_1_3 0
x_1_4 3.1759294346871320e+02
s_1_4 0
z_1_4 0
x_1_5 3.1728675216250122e+02
s_1_5 0
z_1_5 0
x_1_6 3.1696757621690631e+02
s_1_6 0
z_1_6 0
x_1_7 4.9999243231635890e+04
s_1_7 5.0000756768364110e+04
z_1_7 5.0000756768364107e-01
x_1_8 4.9999536141374323e+04
s_1_8 5.0000463858625677e+04
z_1_8 5.0000463858625677e-01
x_1_9 0
s_1_9 1.2049207997624762e+00
z_1_9 1
x_1_10 317.387863047421
s_1_10 0
z_1_10 0
x_1_11 3.1783727858774364e+02
s_1_11 0
z_1_11 0
x_1_12 4.9999281579749892e+04
s_1_12 5.0000718420250108e+04
z_1_12 5.0000718420250112e-01
x_1_13 0
s_1_13 1.6289438921958208e+00
z_1_13 1
x_1_14 3.1786491782031953e+02
s_1_14 0
z_1_14 0
x_1_15 3.1738720713183284e+02
s_1_15 0
z_1_15 0
x_1_16 0
s_1_16 1.1264886998105794e+00
z_1_16 1
x_1_17 0
s_1_17 1.21202790409734
z_1_17 1
x_1_18 3.1560808069724590e+02
s_1_18 0
z_1_18 0
x_1_19 3.1755105725303292e+02
s_1_19 0
z_1_19 0
x_1_20 3.1548668519221246e+02
s_1_20 0
z_1_20 0
x_1_21 3.1547961501218379e+02
s_1_21 0
z_1_21 0
x_1_22 0
s_1_22 1.1281198447868519e+00
z_1_22 1
x_1_23 0
s_1_23 1.2014717707934324e+00
z_1_23 1
x_1_24 3.1707013543322682e+02
s_1_24 0
z_1_24 0
x_1_25 4.9999609046704420e+04
s_1_25 5.0000390953295580e+04
z_1_25 5.0000390953295581e-01
x_1_26 0
s_1_26 1.5591505114571191e+00
z_1_26 1
x_1_27 4.9999303925928551e+04
s_1_27 5.0000696074071449e+04
z_1_27 5.0000696074071449e-01
x_1_28 3.1568467558547854e+02
s_1_28 0
z_1_28 0
x_1_29 3.1651361566525884e+02
s_1_29 0
z_1_29 0
x_1_30 3.1602890569344163e+02
s_1_30 0
z_1_30 0
x_1_31 0
s_1_31 1.3093104463769123e+00
z_1_31 1
x_1_32 3.1600501662306488e+02
s_1_32 0
z_1_32 0
x_1_33 3.1809508154727519e+02
s_1_33 0
z_1_33 0
x_1_34 3.1450965176825412e+02
s_1_34 0
z_1_34 0
x_1_35 3.1394482189114206e+02
s_1_35 0
z_1_35 0
x_1_36 0
s_1_36 1.1898686281347182e+00
z_1_36 1
x_1_37 0
s_1_37 8.9319680708285887e-01
z_1_37 1
x_1_38 3.1714359562471509e+02
s_1_38 0
z_1_38 0
x_1_39 0
s_1_39 1.1623983028111979e+00
z_1_39 1
x_1_40 3.1525471908971667e+02
s_1_40 0
z_1_40 0
x_1_41 3.1444839807739481e+02
s_1_41 0
z_1_41 0
x_1_42 0
s_1_42 1.2291890755732311e+00
z_1_42 1
x_1_43 3.1812167273880914e+02
s_1_43 0
z_1_43 0
x_1_44 4.9999160460376268e+04
s_1_44 5.0000839539623732e+04
z_1_44 5.0000839539623732e-01
x_1_45 4.9999375862269866e+04
s_1_45 5.0000624137730134e+04
z_1_45 5.0000624137730132e-01
x_1_46 0
s_1_46 1.0027415610966273e+00
z_1_46 1
x_1_47 0
s_1_47 1.4819078455911949e+00
z_1_47 1
x_1_48 3.1866758560575545e+02
s_1_48 0
z_1_48 0
x_1_49 0
s_1_49 1.2581057262577815e+00
z_1_49 1
x_1_50 3.1717810235824436e+02
s_1_50 0
z_1_50 0
x_1_51 4.9999483428068284e+04
s_1_51 5.0000516571931716e+04
z_1_51 5.0000516571931719e-01
x_1_52 3.1762798695359379e+02
s_1_52 0
z_1_52 0
x_1_53 3.1833842959208414e+02
s_1_53 0
z_1_53 0
x_1_54 3.1457188750244677e+02
s_1_54 0
z_1_54 0
x_1_55 3.1550860936194658e+02
s_1_55 0
z_1_55 0
x_1_56 4.9999305958789795e+04
s_1_56 50000.6940412102
z_1_56 0.500006940412102
x_1_57 4.9999519175403009e+04
s_1_57 5.0000480824596991e+04
z_1_57 5.0000480824596993e-01
x_1_58 0
s_1_58 1.6291829730616882e+00
z_1_58 1
x_1_59 0
s_1_59 8.2062529522227123e-01
z_1_59 1
x_1_60 3.1521660908125341e+02
s_1_60 0
z_1_60 0
x_1_61 3.1689941756986082e+02
s_1_61 0
z_1_61 0
x_1_62 0
s_1_62 1.2099442904000171e+00
z_1_62 1
x_1_63 3.1450094261951745e+02
s_1_63 0
z_1_63 0
x_1_64 0
s_1_64 1.4753831900889054e+00
z_1_64 1
x_1_65 4.9999302770989671e+04
s_1_65 5.0000697229010322e+04
z_1_65 5.0000697229010327e-01
x_1_66 3.1567585664056242e+02
s_1_66 0
z_1_66 0
x_1_67 3.1640561923384666e+02
s_1_67 0
z_1_67 0
x_1_68 3.1763769662636332e+02
s_1_68 0
z_1_68 0
x_1_69 4.9999193164362121e+04
s_1_69 5.0000806835637879e+04
z_1_69 5.0000806835637879e-01
x_1_70 3.1850213308632374e+02
s_1_70 0
z_1_70 0
x_1_71 0
s_1_71 1.5067069354699925e+00
z_1_71 1
x_1_72 0
s_1_72 1.2926563597866334e+00
z_1_72 1
x_1_73 3.1694794473238289e+02
s_1_73 0
z_1_73 0
x_1_74 3.1552449989691377e+02
s_1_74 0
z_1_74 0
x_1_75 3.1450353461876512e+02
s_1_75 0
z_1_75 0
x_1_76 3.0856232807133347e+02
s_1_76 0
z_1_76 0
x_1_77 0
s_1_77 1.3669034543854650e+00
z_1_77 1
x_1_78 3.1706717543490231e+02
s_1_78 0
z_1_78 0
x_1_79 3.1791392516624182e+02
s_1_79 0
z_1_79 0
x_1_80 3.1448422768898308e+02
s_1_80 0
z_1_80 0
x_1_81 3.1478307038918138e+02
s_1_81 0
z_1_81 0
x_1_82 4.9999306443006077e+04
s_1_82 5.0000693556993923e+04
z_1_82 5.0000693556993925e-01
x_1_83 0
s_1_83 7.5176004471722990e-01
z_1_83 1
x_1_84 0
s_1_84 1.3279183320701122e+00
z_1_84 1
x_1_85 0
s_1_85 1.2766863133292645e+00
z_1_85 1
x_1_86 0
s_1_86 1.3707199742493685e+00
z_1_86 1
x_1_87 0
s_1_87 1.3989702865364961e+00
z_1_87 1
x_1_88 0
s_1_88 1.5065322393493261e+00
z_1_88 1
x_1_89 3.1433220503247867e+02
s_1_89 0
z_1_89 0
x_1_90 4.9999414798254707e+04
s_1_90 50000.5852017453
z_1_90 0.500005852017453
x_1_91 0
s_1_91 1.0885607672389597e+00
z_1_91 1
x_1_92 3.1420558724179864e+02
s_1_92 0
z_1_92 0
x_1_93 0
s_1_93 1.2825831072404981e+00
z_1_93 1
x_1_94 3.1601507786754519e+02
s_1_94 0
z_1_94 0
x_1_95 3.1638044565916061e+02
s_1_95 0
z_1_95 0
x_1_96 0
s_1_96 1.82219416150474
z_1_96 1
x_1_97 0
s_1_97 5.8134983002673835e-01
z_1_97 1
x_1_98 3.1658020325680263e+02
s_1_98 0
z_1_98 0
x_1_99 3.1728381984727457e+02
s_1_99 0
z_1_99 0
x_1_100 3.1722145136818290e+02
s_1_100 0
z_1_100 0
x_1_101 3.1422549806535244e+02
s_1_101 0
z_1_101 0
x_1_102 0
s_1_102 9.0956496150465682e-01
z_1_102 1
x_1_103 3.1509428378939629e+02
s_1_103 0
z_1_103 0
x_1_104 0
s_1_104 1.4728511937573785e+00
z_1_104 1
x_1_105 3.1642883951961994e+02
s_1_105 0
z_1_105 0
x_1_106 3.1636287712468766e+02
s_1_106 0
z_1_106 0
x_1_107 3.1809752596542239e+02
s_1_107 0
z_1_107 0
x_1_108 0
s_1_108 1.2374825694823812e+00
z_1_108 1
x_1_109 3.1707010071724653e+02
s_1_109 0
z_1_109 0
x_1_110 3.1527320561371744e+02
s_1_110 0
z_1_110 0
x_1_111 0
s_1_111 9.2407953705696855e-01
z_1_111 1
x_1_112 0
s_1_112 9.4154301655362360e-01
z_1_112 1
x_1_113 3.1672772282641381e+02
s_1_113 0
z_1_113 0
x_1_114 0
s_1_114 1.2324976309901103e+00
z_1_114 1
x_1_115 4.9999699362894637e+04
s_1_115 5.0000300637105363e+04
z_1_115 5.0000300637105366e-01
x_1_116 3.1666452142968774e+02
s_1_116 0
z_1_116 0
x_1_117 3.1723234453960322e+02
s_1_117 0
z_1_117 0
x_1_118 0
s_1_118 1.4957742812985089e+00
z_1_118 1
x_1_119 3.1545247965678573e+02
s_1_119 0
z_1_119 0
x_1_120 3.1641866118554026e+02
s_1_120 0
z_1_120 0
x_1_121 3.1805870864074677e+02
s_1_121 0
z_1_121 0
x_1_122 3.1422938279993832e+02
s_1_122 0
z_1_122 0
x_1_123 0
s_1_123 1.3001905049895868e+00
z_1_123 1
x_1_124 0
s_1_124 1.3576774757821113e+00
z_1_124 1
x_1_125 4.9999212266796443e+04
s_1_125 5.0000787733203557e+04
z_1_125 5.0000787733203556e-01
x_1_126 0
s_1_126 5.4341989191016182e-01
z_1_126 1
x_1_127 3.1541055936925113e+02
s_1_127 0
z_1_127 0
x_1_128 3.1704186355958018e+02
s_1_128 0
z_1_128 0
x_1_129 0
s_1_129 7.7762295800494030e-01
z_1_129 1
x_1_130 0
s_1_130 1.2718921545892954e+00
z_1_130 1
x_1_131 3.1538468210259452e+02
s_1_131 0
z_1_131 0
x_1_132 3.1417032375745475e+02
s_1_132 0
z_1_132 0
x_1_133 0
s_1_133 0.905759151733946
z_1_133 1
x_1_134 3.1411038465076126e+02
s_1_134 0
z_1_134 0
x_1_135 0
s_1_135 1.1094637913738552e+00
z_1_135 1
x_1_136 3.1564985052496195e+02
s_1_136 0
z_1_136 0
x_1_137 0
s_1_137 7.5061584191280417e-01
z_1_137 1
x_1_138 3.1811754093877971e+02
s_1_138 0
z_1_138 0
x_1_139 3.1741442619264126e+02
s_1_139 0
z_1_139 0
x_1_140 4.9999471318510943e+04
s_1_140 5.0000528681489057e+04
z_1_140 5.0000528681489054e-01
x_1_141 3.1542972210980952e+02
s_1_141 0
z_1_141 0
x_1_142 0
s_1_142 1.8032950361230178e+00
z_1_142 1
x_1_143 3.1750793605297804e+02
s_1_143 0
z_1_143 0
x_1_144 3.1722734345681965e+02
s_1_144 0
z_1_144 0
x_1_145 4.9999447391390109e+04
s_1_145 50000.5526086099
z_1_145 5.0000552608609894e-01
x_1_146 0
s_1_146 4.8873986984835938e-01
z_1_146 1
x_1_147 4.9999498683271071e+04
s_1_147 5.0000501316728929e+04
z_1_147 5.0000501316728929e-01
x_1_148 3.1689844859950244e+02
s_1_148 0
z_1_148 0
x_1_149 0
s_1_149 1.0488106353441253e+00
z_1_149 1
x_1_150 3.1647442370560020e+02
s_1_150 0
z_1_150 0
x_1_151 3.1421214439719915e+02
s_1_151 0
z_1_151 0
x_1_152 3.1674689511582255e+02
s_1_152 0
z_1_152 0
x_1_153 0
s_1_153 7.6581404206808656e-01
z_1_153 1
x_1_154 3.1586822227761149e+02
s_1_154 0
z_1_154 0
x_1_155 3.1638051319122314e+02
s_1_155 0
z_1_155 0
x_1_156 3.1612612513266504e+02
s_1_156 0
z_1_156 0
x_1_157 0
s_1_157 7.0288126147352159e-01
z_1_157 1
x_1_158 0
s_1_158 1.1851130727300188e+00
z_1_158 1
x_1_159 3.1575256292149425e+02
s_1_159 0
z_1_159 0
x_2_0 2.0075922986769697e+05
